c description: Random 3-CNF over 17 variables and 8 clauses
c generator: CNFgen (0.9.0)
c copyright: (C) 2012-2020 Massimo Lauria <massimo.lauria@uniroma1.it>
c url: https://massimolauria.net/cnfgen
c
p cnf 17 8
2 4 -6 0
-2 5 -17 0
-1 2 14 0
-4 11 17 0
1 -4 15 0
6 7 -9 0
3 -11 17 0
-4 10 17 0